c ---- [ banner ] ------------------------------------------------------------
c
c Kissat SAT Solver
c 
c Copyright (c) 2021-2024 Armin Biere University of Freiburg
c Copyright (c) 2019-2021 Armin Biere Johannes Kepler University Linz
c 
c Version 4.0.1 43f02cf3e992cb44653b35e5cb26f93281552ae0
c gcc (Ubuntu 13.2.0-23ubuntu4) 13.2.0 -W -Wall -O3 -DNDEBUG
c Thu Sep 12 12:27:46 CEST 2024 Linux abryzen9 6.8.0-41-generic x86_64
c
c ---- [ parsing ] -----------------------------------------------------------
c
c opened and reading DIMACS file:
c
c   /data/artifact/AMulet2.0_artifact/exp4/cnf_sopb_64/64_64_U1_DT_RC_Multgen_sopb.cnf
c
c parsed 'p cnf 27320 122700' header
c closing input after reading 2456004 bytes (2 MB)
c finished parsing after 0.02 seconds
c
c ---- [ options ] -----------------------------------------------------------
c
c --stable=0                       (different from default '1')
c
c ---- [ solving ] -----------------------------------------------------------
c
c  seconds switched rate     size/glue tier1  binary          remaining
c         MB reductions conflicts size  tier2    irredundant
c          level restarts redundant glue  trail          variables
c
c *  0.02 10 0 0 0  0 0   0   0 0.0 0 0 0 0 0% 9413 113285 27317 100%
c (  0.03 12 0 0 0  0 0   0   0 0.0 0 0 0 0 0% 9413 113285 27317 100%
c .  0.03 12 0 0 0  0 0   0   0 0.0 0 0 0 0 0% 9409 113285 27317 100%
c c  0.08 17 0 0 0  0 0   0   0 0.0 0 0 0 0 0% 13612 104928 25227 92%
c d  0.09 17 0 0 0  0 0   0   0 0.0 0 0 0 0 0% 9432 104928 25227 92%
c =  0.12 17 0 0 0  0 0   0   0 0.0 0 0 0 0 0% 9550 104924 25166 92%
c d  0.13 17 0 0 0  0 0   0   0 0.0 0 0 0 0 0% 9424 104924 25166 92%
c f  0.22 16 0 0 0  0 0   0   0 0.0 0 0 0 0 0% 14318 97170 27987 102%
c e  0.41 23 0 0 0  0 0   0   0 0.0 0 0 0 0 0% 8809 105114 19056 70%
c )  0.41 23 0 0 0  0 0   0   0 0.0 0 0 0 0 0% 8809 105114 19056 70%
c {  0.43 23 0 0 0  0 0   0   0 0.0 0 0 2 6 0% 8809 105114 19056 70%
c -  0.73 24 144 0 1 279 41 1000 723 3.4 21 6 4 11 23% 8845 105113 19056 70%
c -  0.98 24 259 0 2 396 36 2000 1400 3.6 24 7 4 12 23% 8868 105113 19056 70%
c c  1.11 22 322 0 2 434 35 2502 1840 3.5 22 6 4 12 21% 8885 105038 19041 70%
c d  1.12 22 322 0 2 434 35 2502 1839 3.5 22 6 4 12 21% 8855 105038 19041 70%
c u  1.15 22 322 0 2 434 35 2502 1488 3.5 22 6 4 12 21% 8870 105038 19041 70%
c v  1.17 22 322 0 2 434 35 2502 1374 3.5 22 6 4 12 21% 8870 105038 19041 70%
c w  1.19 22 322 0 2 434 35 2502 1374 3.5 22 6 4 12 21% 8870 105038 19041 70%
c x  1.21 22 322 0 2 434 35 2502 1374 3.5 22 6 4 12 21% 8870 105011 19041 70%
c =  1.29 22 322 0 2 434 35 2502 1374 3.5 22 6 4 12 21% 8938 105011 19007 70%
c
c  seconds   switched   rate       size/glue tier1     binary          remaining
c         MB  reductions conflicts       size  tier2      irredundant
c           level restarts    redundant    glue    trail          variables
c
c d  1.29 22 322 0 2 434 35 2502 1374 3.5 22 6 4 12 21% 8870 105011 19007 70%
c t  1.31 22 322 0 2 434 35 2502 1374 3.5 22 6 4 12 21% 8868 105011 19007 70%
c f  1.34 22 322 0 2 434 35 2502 1374 3.5 22 6 4 12 21% 9482 103761 19634 72%
c u  1.38 22 322 0 2 434 35 2502 1339 3.5 22 6 4 12 21% 9484 103761 19634 72%
c v  1.40 22 322 0 2 434 35 2502 1283 3.5 22 6 4 12 21% 9484 103761 19634 72%
c w  1.43 23 322 0 2 434 35 2502 1279 3.5 22 6 4 12 21% 9484 103761 19634 72%
c =  1.50 23 322 0 2 434 35 2502 1279 3.5 22 6 4 12 21% 9824 103761 19464 71%
c d  1.51 23 322 0 2 434 35 2502 1278 3.5 22 6 4 12 21% 9416 103761 19464 71%
c f  1.56 23 322 0 2 434 35 2502 1278 3.5 22 6 4 12 21% 10270 102442 19900 73%
c -  1.97 23 269 0 3 585 33 3414 1756 3.9 26 7 3 11 25% 10301 102442 19900 73%
c -  2.40 23 298 0 4 776 33 5146 2786 3.7 24 6 3 10 24% 10358 102442 19900 73%
c -  2.90 23 354 0 5 968 33 7146 3904 3.8 24 6 3 10 24% 10429 102442 19900 73%
c c  3.24 23 342 0 5 1070 35 7707 4359 4.0 26 6 3 10 25% 10470 102176 19846 73%
c d  3.25 23 342 0 5 1070 35 7707 4321 4.0 26 6 3 10 25% 10362 102176 19846 73%
c u  3.29 23 342 0 5 1070 35 7707 3623 4.0 26 6 3 10 25% 10393 102176 19846 73%
c v  3.33 23 342 0 5 1070 35 7707 3308 4.0 26 6 3 10 25% 10394 102176 19846 73%
c w  3.40 23 342 0 5 1070 35 7707 3308 4.0 26 6 3 10 25% 10394 102176 19846 73%
c x  3.44 23 342 0 5 1070 35 7707 3308 4.0 26 6 3 10 25% 10394 101986 19846 73%
c =  3.59 23 342 0 5 1070 35 7707 3308 4.0 26 6 3 10 25% 11280 101986 19403 71%
c d  3.60 23 342 0 5 1070 35 7707 3275 4.0 26 6 3 10 25% 10177 101986 19395 71%
c
c  seconds   switched    rate       size/glue tier1     binary           remaining
c         MB  reductions  conflicts       size  tier2       irredundant
c           level  restarts    redundant    glue    trail           variables
c
c t  3.62 23 342 0 5 1070 35 7707 3275 4.0 26 6 3 10 25% 10172 101986 19395 71%
c f  3.68 23 342 0 5 1070 35 7707 3275 4.0 26 6 3 10 25% 10624 101298 19621 72%
c u  3.79 23 342 0 5 1070 35 7707 3177 4.0 26 6 3 10 25% 10629 101298 19621 72%
c v  3.83 23 342 0 5 1070 35 7707 3101 4.0 26 6 3 10 25% 10629 101298 19621 72%
c w  3.92 23 342 0 5 1070 35 7707 3094 4.0 26 6 3 10 25% 10629 101298 19621 72%
c x  3.96 23 342 0 5 1070 35 7707 3094 4.0 26 6 3 10 25% 10629 100989 19621 72%
c =  4.10 24 342 0 5 1070 35 7707 3094 4.0 26 6 3 10 25% 11363 100989 19254 70%
c d  4.11 24 342 0 5 1070 35 7707 3078 4.0 26 6 3 10 25% 10456 100989 19253 70%
c t  4.12 24 342 0 5 1070 35 7707 3078 4.0 26 6 3 10 25% 10434 100989 19253 70%
c f  4.16 24 342 0 5 1070 35 7707 3078 4.0 26 6 3 10 25% 13024 97099 20550 75%
c -  4.57 24 358 0 6 1246 35 9383 3866 4.2 27 7 2 10 25% 13086 97099 20550 75%
c o  4.73 24 351 0 6 1300 35 10004 4397 4.2 28 7 2 10 26% 13104 97099 20550 75%
c -  5.29 24 333 0 7 1542 36 11832 5136 4.2 30 7 2 10 27% 13167 97099 20550 75%
c s  5.60 24 324 0 7 1640 36 12508 5766 4.3 30 7 2 10 27% 13170 94026 20550 75%
c e  5.69 24 324 0 7 1640 36 12508 5766 4.3 30 7 2 10 27% 12735 94284 20140 74%
c s  5.69 24 324 0 7 1640 36 12508 5766 4.3 30 7 2 10 27% 12742 93908 20140 74%
c e  5.70 24 324 0 7 1640 36 12508 5766 4.3 30 7 2 10 27% 12516 94023 20028 73%
c ^  5.70 24 324 0 7 1640 36 12508 5766 4.3 30 7 2 10 27% 12516 94023 20028 73%
c -  6.38 24 329 0 8 1892 37 14477 6092 4.6 33 7 2 10 28% 12565 94023 20028 73%
c d  6.63 24 331 0 8 2008 37 15785 7128 4.5 33 7 2 10 28% 12136 94019 19744 72%
c
c  seconds   switched    rate        size/glue tier1     binary          remaining
c         MB  reductions   conflicts       size  tier2       irredundant
c           level  restarts     redundant    glue    trail          variables
c
c u  6.68 24 331 0 8 2008 37 15785 6430 4.5 33 7 2 10 28% 12154 94019 19744 72%
c v  6.75 24 331 0 8 2008 37 15785 5477 4.5 33 7 2 10 28% 12154 94019 19744 72%
c w  6.88 24 331 0 8 2008 37 15785 5472 4.5 33 7 2 10 28% 12154 94019 19744 72%
c x  6.93 24 331 0 8 2008 37 15785 5472 4.5 33 7 2 10 28% 12154 93654 19744 72%
c =  7.23 24 331 0 8 2008 37 15785 5472 4.5 33 7 2 10 28% 13014 93654 19314 71%
c d  7.24 24 331 0 8 2008 37 15785 5383 4.5 33 7 2 10 28% 12045 93654 19311 71%
c t  7.27 24 331 0 8 2008 37 15785 5383 4.5 33 7 2 10 28% 11920 93654 19311 71%
c f  7.34 24 331 0 8 2008 37 15785 5383 4.5 33 7 2 10 28% 11966 93556 19334 71%
c u  7.45 24 331 0 8 2008 37 15785 5191 4.5 33 7 2 10 28% 11968 93556 19334 71%
c v  7.49 24 331 0 8 2008 37 15785 5080 4.5 33 7 2 10 28% 11968 93556 19334 71%
c w  7.61 24 331 0 8 2008 37 15785 5055 4.5 33 7 2 10 28% 11968 93556 19334 71%
c x  7.67 24 331 0 8 2008 37 15785 5055 4.5 33 7 2 10 28% 11968 92027 19334 71%
c =  7.98 24 331 0 8 2008 37 15785 5055 4.5 33 7 2 10 28% 16258 92027 17189 63%
c d  7.99 24 331 0 8 2008 37 15785 4971 4.5 33 7 2 10 28% 10199 92027 17189 63%
c t  8.01 24 331 0 8 2008 37 15785 4971 4.5 33 7 2 10 28% 10198 92027 17189 63%
c -  8.51 24 330 0 9 2154 37 17305 5567 4.3 34 8 2 10 28% 10218 92027 17189 63%
c o  8.95 24 330 0 9 2275 34 20284 7995 4.2 32 8 2 10 27% 10289 92027 17189 63%
c -  8.98 24 329 0 10 2280 34 20306 7095 4.2 32 8 2 9 27% 10289 92027 17189 63%
c -  9.94 24 322 0 11 2577 34 23468 8582 4.3 33 8 2 9 28% 10349 92027 17189 63%
c s 10.25 24 323 0 11 2646 33 25011 9848 4.3 33 8 2 9 28% 10394 85402 17189 63%
c
c  seconds   switched     rate        size/glue tier1    binary         remaining
c         MB   reductions   conflicts       size  tier2     irredundant
c           level   restarts     redundant    glue   trail         variables
c
c e 10.37 24 323 0 11 2646 33 25011 9848 4.3 33 8 2 9 28% 8817 87034 16251 59%
c s 10.37 24 323 0 11 2646 33 25011 9848 4.3 33 8 2 9 28% 8818 86873 16251 59%
c e 10.38 24 323 0 11 2646 33 25011 9848 4.3 33 8 2 9 28% 8796 86900 16241 59%
c ^ 10.38 24 323 0 11 2646 33 25011 9848 4.3 33 8 2 9 28% 8796 86900 16241 59%
c - 10.64 24 327 0 12 2709 32 26785 9219 4.2 31 7 2 8 27% 8829 86900 16241 59%
c d 10.66 24 326 0 12 2710 32 26911 9329 4.2 31 7 2 8 27% 8627 86900 16122 59%
c u 10.72 24 326 0 12 2710 32 26911 8044 4.2 31 7 2 8 27% 8643 86900 16122 59%
c v 10.77 24 326 0 12 2710 32 26911 7073 4.2 31 7 2 8 27% 8646 86900 16122 59%
c w 10.78 24 326 0 12 2710 32 26911 7069 4.2 31 7 2 8 27% 8646 86900 16122 59%
c x 10.87 24 326 0 12 2710 32 26911 7069 4.2 31 7 2 8 27% 8646 86288 16122 59%
c = 11.12 24 326 0 12 2710 32 26911 7069 4.2 31 7 2 8 27% 10548 86286 15171 56%
c d 11.13 24 326 0 12 2710 32 26911 6779 4.2 31 7 2 8 27% 8539 86286 15171 56%
c t 11.15 24 326 0 12 2710 32 26911 6779 4.2 31 7 2 8 27% 8537 86286 15171 56%
c f 11.20 24 326 0 12 2710 32 26911 6779 4.2 31 7 2 8 27% 8576 86175 15191 56%
c u 11.26 24 326 0 12 2710 32 26911 6442 4.2 31 7 2 8 27% 8577 86175 15191 56%
c v 11.29 24 326 0 12 2710 32 26911 6330 4.2 31 7 2 8 27% 8578 86175 15191 56%
c w 11.30 24 326 0 12 2710 32 26911 6325 4.2 31 7 2 8 27% 8578 86175 15191 56%
c x 11.40 24 326 0 12 2710 32 26911 6325 4.2 31 7 2 8 27% 8578 81568 15191 56%
c = 11.62 24 326 0 12 2710 32 26911 6325 4.2 31 7 2 8 27% 8820 81568 15070 55%
c d 11.62 24 326 0 12 2710 32 26911 6319 4.2 31 7 2 8 27% 8575 81568 15069 55%
c
c  seconds   switched     rate        size/glue tier1    binary         remaining
c         MB   reductions   conflicts       size  tier2     irredundant
c           level   restarts     redundant    glue   trail         variables
c
c f 11.66 24 326 0 12 2710 32 26911 6319 4.2 31 7 2 8 27% 8577 81563 15070 55%
c - 12.60 24 319 0 13 3064 32 30252 8234 4.2 32 8 2 8 28% 8621 81563 15070 55%
c - 13.10 24 316 0 14 3256 31 33858 10225 4.1 31 7 2 8 27% 8654 81563 15070 55%
c - 13.71 24 306 0 15 3497 30 37600 11648 4.1 31 8 2 7 26% 8714 81563 15070 55%
c o 14.21 24 296 0 15 3685 29 40392 13829 4.1 31 8 2 7 25% 8764 81563 15070 55%
c c 14.51 24 294 0 15 3761 30 41242 14583 4.0 31 8 2 7 26% 8902 80727 14931 55%
c d 14.52 24 294 0 15 3761 30 41242 14074 4.0 31 8 2 7 26% 8624 80727 14931 55%
c u 14.59 24 294 0 15 3761 30 41242 12018 4.0 31 8 2 7 26% 8662 80727 14931 55%
c v 14.67 24 294 0 15 3761 30 41242 10582 4.0 31 8 2 7 26% 8669 80727 14931 55%
c w 14.73 24 294 0 15 3761 30 41242 10582 4.0 31 8 2 7 26% 8669 80727 14931 55%
c x 14.80 24 294 0 15 3761 30 41242 10582 4.0 31 8 2 7 26% 8669 79736 14931 55%
c d 15.05 24 294 0 15 3761 30 41242 10545 4.0 31 8 2 7 26% 8643 79736 14918 55%
c t 15.07 24 294 0 15 3761 30 41242 10545 4.0 31 8 2 7 26% 8639 79736 14918 55%
c f 15.09 24 294 0 15 3761 30 41242 10545 4.0 31 8 2 7 26% 8641 79731 14919 55%
c u 15.16 24 294 0 15 3761 30 41242 10122 4.0 31 8 2 7 26% 8649 79731 14919 55%
c v 15.21 24 294 0 15 3761 30 41242 9909 4.0 31 8 2 7 26% 8649 79731 14919 55%
c w 15.33 24 294 0 15 3761 30 41242 9900 4.0 31 8 2 7 26% 8649 79731 14919 55%
c x 15.40 24 294 0 15 3761 30 41242 9900 4.0 31 8 2 7 26% 8649 78522 14919 55%
c d 15.41 24 294 0 15 3761 30 41242 9899 4.0 31 8 2 7 26% 8645 78522 14917 55%
c t 15.44 24 294 0 15 3761 30 41242 9899 4.0 31 8 2 7 26% 8644 78522 14917 55%
c
c  seconds   switched     rate        size/glue tier1    binary         remaining
c         MB   reductions   conflicts       size  tier2     irredundant
c           level   restarts     redundant    glue   trail         variables
c
c - 15.58 24 293 0 16 3806 30 41472 8835 4.0 31 8 2 8 26% 8645 78522 14917 55%
c - 16.50 24 292 0 17 4127 30 45472 10778 4.0 31 8 2 7 26% 8759 78522 14917 55%
c - 17.00 24 287 0 18 4339 29 49596 12664 4.0 30 8 2 7 25% 8847 78522 14917 55%
c s 17.72 24 282 0 18 4623 29 52116 14943 4.0 31 8 2 7 25% 8878 77593 14917 55%
c e 17.82 24 282 0 18 4623 29 52116 14943 4.0 31 8 2 7 25% 8458 78092 14637 54%
c s 17.82 24 282 0 18 4623 29 52116 14943 4.0 31 8 2 7 25% 8460 77673 14637 54%
c e 17.83 24 282 0 18 4623 29 52116 14943 4.0 31 8 2 7 25% 8459 77675 14636 54%
c ^ 17.83 24 282 0 18 4623 29 52116 14943 4.0 31 8 2 7 25% 8459 77675 14636 54%
c - 18.15 24 282 0 19 4740 29 53839 13530 3.9 31 8 2 7 25% 8498 77675 14636 54%
c - 18.96 24 286 0 20 5076 29 58197 15232 3.9 31 8 2 7 25% 8547 77675 14636 54%
c c 19.19 24 285 0 20 5156 29 58880 15868 3.9 31 8 2 7 25% 8700 76809 14512 53%
c d 19.20 24 285 0 20 5156 29 58880 15581 3.9 31 8 2 7 25% 8452 76809 14512 53%
c u 19.25 24 285 0 20 5156 29 58880 13212 3.9 31 8 2 7 25% 8499 76809 14512 53%
c v 19.29 24 285 0 20 5156 29 58880 11804 3.9 31 8 2 7 25% 8504 76809 14512 53%
c w 19.36 24 285 0 20 5156 29 58880 11796 3.9 31 8 2 7 25% 8504 76809 14512 53%
c x 19.47 24 285 0 20 5156 29 58880 11796 3.9 31 8 2 7 25% 8504 76415 14512 53%
c = 19.70 24 285 0 20 5156 29 58880 11796 3.9 31 8 2 7 25% 9096 76411 14216 52%
c d 19.70 24 285 0 20 5156 29 58880 11615 3.9 31 8 2 7 25% 8443 76411 14199 52%
c t 19.71 24 285 0 20 5156 29 58880 11615 3.9 31 8 2 7 25% 8435 76411 14199 52%
c f 19.74 24 285 0 20 5156 29 58880 11615 3.9 31 8 2 7 25% 8443 76382 14203 52%
c
c  seconds   switched     rate         size/glue tier1    binary         remaining
c         MB   reductions   conflicts        size  tier2     irredundant
c           level   restarts      redundant    glue   trail         variables
c
c c 19.78 24 285 0 20 5156 29 58880 11598 3.9 31 8 2 7 25% 8464 76294 14192 52%
c d 19.78 24 285 0 20 5156 29 58880 11598 3.9 31 8 2 7 25% 8442 76294 14192 52%
c u 19.82 24 285 0 20 5156 29 58880 10853 3.9 31 8 2 7 25% 8449 76294 14192 52%
c v 19.85 24 285 0 20 5156 29 58880 10613 3.9 31 8 2 7 25% 8450 76294 14192 52%
c w 19.89 24 285 0 20 5156 29 58880 10577 3.9 31 8 2 7 25% 8450 76294 14192 52%
c x 20.01 24 285 0 20 5156 29 58880 10575 3.9 31 8 2 7 25% 8450 74933 14192 52%
c = 20.35 24 285 0 20 5156 29 58880 10575 3.9 31 8 2 7 25% 10180 74933 13327 49%
c d 20.36 24 285 0 20 5156 29 58880 10044 3.9 31 8 2 7 25% 8336 74933 13326 49%
c - 20.84 24 276 0 21 5396 28 62669 11748 3.9 30 8 2 7 25% 8421 74933 13326 49%
c - 21.42 24 266 0 22 5778 27 67251 14097 3.8 30 8 2 7 25% 8470 74933 13326 49%
c o 22.08 24 266 0 22 6141 27 70401 16836 3.8 30 8 2 7 25% 8507 74932 13326 49%
c - 22.31 24 264 0 23 6285 27 71942 16010 3.8 30 8 2 7 25% 8525 74932 13326 49%
c - 23.02 24 251 0 24 6620 27 76737 17658 3.8 30 8 2 6 25% 8606 74931 13326 49%
c d 23.19 24 250 0 24 6704 26 79954 19712 3.7 29 8 2 6 24% 8398 74931 13178 48%
c u 23.26 24 250 0 24 6704 26 79954 16333 3.7 29 8 2 6 24% 8453 74931 13178 48%
c v 23.32 24 250 0 24 6704 26 79954 14914 3.7 29 8 2 6 24% 8459 74931 13178 48%
c w 23.36 24 250 0 24 6704 26 79954 14913 3.7 29 8 2 6 24% 8459 74931 13178 48%
c x 23.44 24 250 0 24 6704 26 79954 14909 3.7 29 8 2 6 24% 8460 67726 13178 48%
c = 23.54 24 250 0 24 6704 26 79954 14909 3.7 29 8 2 6 24% 8468 67724 13174 48%
c d 23.54 24 250 0 24 6704 26 79954 14860 3.7 29 8 2 6 24% 8417 67724 13153 48%
c
c  seconds   switched     rate         size/glue tier1    binary         remaining
c         MB   reductions   conflicts        size  tier2     irredundant
c           level   restarts      redundant    glue   trail         variables
c
c t 23.56 24 250 0 24 6704 26 79954 14860 3.7 29 8 2 6 24% 8415 67724 13153 48%
c c 23.64 24 250 0 24 6704 26 79954 14794 3.7 29 8 2 6 24% 8485 67415 13118 48%
c d 23.65 24 250 0 24 6704 26 79954 14732 3.7 29 8 2 6 24% 8415 67415 13118 48%
c u 23.73 24 250 0 24 6704 26 79954 13773 3.7 29 8 2 6 24% 8427 67415 13118 48%
c v 23.80 24 250 0 24 6704 26 79954 13056 3.7 29 8 2 6 24% 8433 67415 13118 48%
c w 23.91 24 250 0 24 6704 26 79954 12785 3.7 29 8 2 6 24% 8433 67415 13118 48%
c x 24.01 24 250 0 24 6704 26 79954 12784 3.7 29 8 2 6 24% 8433 66808 13118 48%
c = 24.32 24 250 0 24 6704 26 79954 12784 3.7 29 8 2 6 24% 9061 66728 12795 47%
c d 24.33 24 250 0 24 6704 26 79954 12200 3.7 29 8 2 6 24% 8335 66728 12795 47%
c t 24.33 24 250 0 24 6704 26 79954 12200 3.7 29 8 2 6 24% 8333 66728 12795 47%
c f 24.35 24 250 0 24 6704 26 79954 12200 3.7 29 8 2 6 24% 8339 66712 12797 47%
c i 24.39 24 247 0 24 6728 25 81280 13128 3.7 28 8 2 6 24% 8373 66707 12796 47%
c - 24.47 24 246 0 25 6788 25 81636 11979 3.7 29 8 2 6 24% 8365 66707 12796 47%
c - 25.07 24 244 0 26 7195 25 86638 14470 3.6 28 8 2 6 24% 8427 66704 12796 47%
c i 25.40 24 241 0 26 7362 25 89320 16694 3.6 28 8 2 6 24% 8471 66703 12795 47%
c - 26.16 24 239 0 27 7728 25 91737 16844 3.6 28 8 2 6 24% 8493 66700 12795 47%
c s 26.77 24 235 0 27 8003 25 95798 20247 3.6 28 8 2 6 24% 8558 64829 12795 47%
c e 26.90 25 235 0 27 8003 25 95798 20247 3.6 28 8 2 6 24% 5704 71330 11265 41%
c 2 26.90 25 235 0 27 8003 25 95798 20247 3.6 28 8 2 6 24% 5702 71330 11265 41%
c s 26.92 25 235 0 27 8003 25 95798 20247 3.6 28 8 2 6 24% 5702 70822 11265 41%
c
c  seconds   switched     rate         size/glue tier1    binary         remaining
c         MB   reductions   conflicts        size  tier2     irredundant
c           level   restarts      redundant    glue   trail         variables
c
c e 26.93 25 235 0 27 8003 25 95798 20247 3.6 28 8 2 6 24% 5697 70838 11257 41%
c ^ 26.93 25 235 0 27 8003 25 95798 20247 3.6 28 8 2 6 24% 5697 70838 11257 41%
c - 27.23 27 234 0 28 8130 25 96933 14249 3.6 28 8 2 6 24% 5701 70838 11257 41%
c i 27.28 27 234 0 28 8143 25 97163 14420 3.6 28 8 2 6 24% 5708 70838 11256 41%
c i 28.09 27 231 0 28 8499 24 101804 18383 3.5 27 8 2 6 24% 5758 70837 11255 41%
c - 28.23 27 230 0 29 8561 24 102224 16657 3.5 27 8 2 6 24% 5761 70837 11255 41%
c i 28.88 27 228 0 29 8891 24 104197 18464 3.5 27 8 2 6 25% 5776 70836 11254 41%
c c 29.04 27 227 0 29 8934 24 104623 18873 3.5 27 8 2 6 25% 5847 70196 11174 41%
c d 29.04 27 227 0 29 8934 24 104623 18449 3.5 27 8 2 6 25% 5691 70194 11174 41%
c d 29.05 27 227 0 29 8934 24 104623 18445 3.5 27 8 2 6 25% 5686 70194 11172 41%
c u 29.13 27 227 0 29 8934 24 104623 15116 3.5 27 8 2 6 25% 5734 70194 11172 41%
c v 29.23 27 227 0 29 8934 24 104623 13220 3.5 27 8 2 6 25% 5736 70194 11172 41%
c w 29.37 27 227 0 29 8934 24 104623 13214 3.5 27 8 2 6 25% 5736 70194 11172 41%
c x 29.48 27 227 0 29 8934 24 104623 13212 3.5 27 8 2 6 25% 5736 70164 11172 41%
c = 30.01 27 227 0 29 8934 24 104623 13212 3.5 27 8 2 6 25% 6073 69918 10977 40%
c d 30.02 27 227 0 29 8934 24 104623 12636 3.5 27 8 2 6 25% 5675 69918 10977 40%
c t 30.03 27 227 0 29 8934 24 104623 12636 3.5 27 8 2 6 25% 5657 69918 10977 40%
c f 30.10 27 227 0 29 8934 24 104623 12636 3.5 27 8 2 6 25% 5652 69914 10978 40%
c u 30.21 27 227 0 29 8934 24 104623 11621 3.5 27 8 2 6 25% 5638 69914 10978 40%
c v 30.26 27 227 0 29 8934 24 104623 11249 3.5 27 8 2 6 25% 5638 69914 10978 40%
c
c  seconds   switched     rate          size/glue tier1    binary         remaining
c         MB   reductions   conflicts         size  tier2     irredundant
c           level   restarts       redundant    glue   trail         variables
c
c w 30.53 27 227 0 29 8934 24 104623 11084 3.5 27 8 2 6 25% 5638 69914 10978 40%
c - 31.34 27 221 0 30 9136 24 107609 11952 3.4 27 8 2 6 24% 5688 69908 10978 40%
c i 31.41 27 219 0 30 9185 24 108300 12542 3.4 27 8 2 6 24% 5700 69907 10977 40%
c i 31.43 27 219 0 30 9217 24 108534 12728 3.4 27 8 2 6 24% 5708 69906 10976 40%
c i 31.52 27 216 0 30 9303 23 109810 13757 3.4 27 8 2 6 24% 5741 69906 10975 40%
c i 31.53 27 215 0 30 9327 23 110215 14056 3.4 27 8 2 6 24% 5751 69906 10974 40%
c o 31.56 27 215 0 30 9332 23 110410 14238 3.4 27 8 2 6 24% 5751 69906 10974 40%
c i 31.58 27 214 0 30 9372 23 110735 14497 3.4 27 8 2 6 24% 5762 69906 10972 40%
c i 31.60 27 213 0 30 9388 23 111182 14872 3.4 26 8 2 6 24% 5766 69906 10966 40%
c i 31.60 27 213 0 30 9391 23 111251 14930 3.4 26 8 2 6 24% 5768 69906 10964 40%
c i 31.60 27 212 0 30 9391 23 111536 15095 3.4 26 8 2 6 24% 5778 69902 10963 40%
c i 31.61 27 212 0 30 9394 23 111659 15193 3.4 26 8 2 6 24% 5781 69902 10962 40%
c i 31.61 27 212 0 30 9394 23 111664 15193 3.4 26 8 2 6 24% 5782 69902 10961 40%
c i 31.61 27 212 0 30 9394 23 111666 15193 3.4 26 8 2 6 24% 5783 69902 10960 40%
c } 31.61 27 212 0 30 9394 23 111674 15191 3.4 26 8 2 6 24% 5787 69900 10945 40%
c 0 31.61 27 212 0 30 9394 23 111674 15191 3.4 26 8 2 6 24% 5787 69900 10945 40%
c
c ---- [ result ] ------------------------------------------------------------
c
s UNSATISFIABLE
c
c ---- [ profiling ] ---------------------------------------------------------
c
c          21.02   66.50 %  search
c          21.02   66.50 %  focused
c          10.16   32.14 %  simplify
c           9.74   30.80 %  probe
c           3.87   12.24 %  vivify
c           3.85   12.18 %  sweep
c           0.68    2.15 %  factor
c           0.62    1.95 %  congruence
c           0.61    1.93 %  eliminate
c           0.51    1.62 %  substitute
c           0.38    1.20 %  preprocess
c           0.19    0.59 %  fastel
c           0.18    0.58 %  reduce
c           0.14    0.44 %  transitive
c           0.12    0.37 %  subsume
c           0.07    0.21 %  backbone
c           0.03    0.10 %  lucky
c           0.02    0.06 %  parse
c =============================================
c          31.61  100.00 %  total
c
c ---- [ statistics ] --------------------------------------------------------
c
c chronological:                         5178                5 %  conflicts
c conflicts:                           111674             3532.46 per second
c congruent:                             2548                9 %  variables
c decisions:                          2563130               22.95 per conflict
c eliminated:                           12220               45 %  variables
c factored:                              5459               20 %  variables
c fast_eliminated:                       8931               73 %  eliminated
c fast_strengthened:                       48                8 %  per strengthened
c fast_subsumed:                           74                1 %  per subsumed
c iterations:                              17                0 %  variables
c propagations:                      98642722          3120252    per second
c reductions:                              30             3722    interval
c reordered:                                5            22335    interval
c restarts:                              9394               12    interval
c strengthened:                           582                0 %  checks
c substituted:                           9536               35 %  variables
c subsumed:                             14017                1 %  checks
c switched:                                 0                0    interval
c vivified:                             58022               11 %  checks
c
c ---- [ glue usage ] --------------------------------------------------------
c
c focused glue 2 used 58446 clauses 23.46% accumulated 73.14% tier1
c focused glue 3 used 18773 clauses  7.53% accumulated 80.68%
c focused glue 4 used 11351 clauses  4.56% accumulated 85.23%
c focused glue 5 used  7922 clauses  3.18% accumulated 88.41%
c focused glue 6 used  5817 clauses  2.33% accumulated 90.75% tier2
c
c ---- [ resources ] ---------------------------------------------------------
c
c maximum-resident-set-size:         28676096 bytes         27 MB
c process-time:                            32s              31.61 seconds
c
c ---- [ shutting down ] -----------------------------------------------------
c
c exit 20
